; benchmark generated from python API
(set-info :status unknown)
(declare-fun cell_1_2 () Int)
(declare-fun cell_1_4 () Int)
(declare-fun cell_2_5 () Int)
(declare-fun cell_2_9 () Int)
(declare-fun cell_3_1 () Int)
(declare-fun cell_3_9 () Int)
(declare-fun cell_4_4 () Int)
(declare-fun cell_4_8 () Int)
(declare-fun cell_5_3 () Int)
(declare-fun cell_5_7 () Int)
(declare-fun cell_6_3 () Int)
(declare-fun cell_6_6 () Int)
(declare-fun cell_7_1 () Int)
(declare-fun cell_7_2 () Int)
(declare-fun cell_8_6 () Int)
(declare-fun cell_8_7 () Int)
(declare-fun cell_9_5 () Int)
(declare-fun cell_1_1 () Int)
(declare-fun cell_2_1 () Int)
(declare-fun cell_4_1 () Int)
(declare-fun cell_5_1 () Int)
(declare-fun cell_6_1 () Int)
(declare-fun cell_8_1 () Int)
(declare-fun cell_9_1 () Int)
(declare-fun cell_2_2 () Int)
(declare-fun cell_3_2 () Int)
(declare-fun cell_4_2 () Int)
(declare-fun cell_5_2 () Int)
(declare-fun cell_6_2 () Int)
(declare-fun cell_8_2 () Int)
(declare-fun cell_9_2 () Int)
(declare-fun cell_1_3 () Int)
(declare-fun cell_2_3 () Int)
(declare-fun cell_3_3 () Int)
(declare-fun cell_4_3 () Int)
(declare-fun cell_7_3 () Int)
(declare-fun cell_8_3 () Int)
(declare-fun cell_9_3 () Int)
(declare-fun cell_2_4 () Int)
(declare-fun cell_3_4 () Int)
(declare-fun cell_5_4 () Int)
(declare-fun cell_6_4 () Int)
(declare-fun cell_7_4 () Int)
(declare-fun cell_8_4 () Int)
(declare-fun cell_9_4 () Int)
(declare-fun cell_1_5 () Int)
(declare-fun cell_3_5 () Int)
(declare-fun cell_4_5 () Int)
(declare-fun cell_5_5 () Int)
(declare-fun cell_6_5 () Int)
(declare-fun cell_7_5 () Int)
(declare-fun cell_8_5 () Int)
(declare-fun cell_1_6 () Int)
(declare-fun cell_2_6 () Int)
(declare-fun cell_3_6 () Int)
(declare-fun cell_4_6 () Int)
(declare-fun cell_5_6 () Int)
(declare-fun cell_7_6 () Int)
(declare-fun cell_9_6 () Int)
(declare-fun cell_1_7 () Int)
(declare-fun cell_2_7 () Int)
(declare-fun cell_3_7 () Int)
(declare-fun cell_4_7 () Int)
(declare-fun cell_6_7 () Int)
(declare-fun cell_7_7 () Int)
(declare-fun cell_9_7 () Int)
(declare-fun cell_1_8 () Int)
(declare-fun cell_2_8 () Int)
(declare-fun cell_3_8 () Int)
(declare-fun cell_5_8 () Int)
(declare-fun cell_6_8 () Int)
(declare-fun cell_7_8 () Int)
(declare-fun cell_8_8 () Int)
(declare-fun cell_9_8 () Int)
(declare-fun cell_1_9 () Int)
(declare-fun cell_4_9 () Int)
(declare-fun cell_5_9 () Int)
(declare-fun cell_6_9 () Int)
(declare-fun cell_7_9 () Int)
(declare-fun cell_8_9 () Int)
(declare-fun cell_9_9 () Int)
(assert
 (= cell_1_2 2))
(assert
 (= cell_1_4 1))
(assert
 (= cell_2_5 2))
(assert
 (= cell_2_9 1))
(assert
 (= cell_3_1 1))
(assert
 (= cell_3_9 2))
(assert
 (= cell_4_4 2))
(assert
 (= cell_4_8 1))
(assert
 (= cell_5_3 1))
(assert
 (= cell_5_7 2))
(assert
 (= cell_6_3 2))
(assert
 (= cell_6_6 1))
(assert
 (= cell_7_1 2))
(assert
 (= cell_7_2 1))
(assert
 (= cell_8_6 2))
(assert
 (= cell_8_7 1))
(assert
 (= cell_9_5 1))
(assert
 (let (($x8812 (= cell_1_1 9)))
 (let (($x5131 (= cell_1_1 8)))
 (let (($x5037 (= cell_1_1 7)))
 (let (($x3454 (= cell_1_1 6)))
 (let (($x9284 (= cell_1_1 5)))
 (let (($x5562 (= cell_1_1 4)))
 (let (($x2823 (= cell_1_1 3)))
 (let (($x3609 (= cell_1_1 2)))
 (let (($x9040 (= cell_1_1 1)))
 (or $x9040 $x3609 $x2823 $x5562 $x9284 $x3454 $x5037 $x5131 $x8812)))))))))))
(assert
 (let (($x1799 (= cell_2_1 9)))
 (let (($x6630 (= cell_2_1 8)))
 (let (($x7388 (= cell_2_1 7)))
 (let (($x3394 (= cell_2_1 6)))
 (let (($x4852 (= cell_2_1 5)))
 (let (($x6228 (= cell_2_1 4)))
 (let (($x7114 (= cell_2_1 3)))
 (let (($x8616 (= cell_2_1 2)))
 (let (($x3679 (= cell_2_1 1)))
 (or $x3679 $x8616 $x7114 $x6228 $x4852 $x3394 $x7388 $x6630 $x1799)))))))))))
(assert
 (let (($x8093 (= cell_3_1 1)))
 (or $x8093 (= cell_3_1 2) (= cell_3_1 3) (= cell_3_1 4) (= cell_3_1 5) (= cell_3_1 6) (= cell_3_1 7) (= cell_3_1 8) (= cell_3_1 9))))
(assert
 (let (($x6972 (= cell_4_1 9)))
 (let (($x81 (= cell_4_1 8)))
 (let (($x2608 (= cell_4_1 7)))
 (let (($x3674 (= cell_4_1 6)))
 (let (($x4029 (= cell_4_1 5)))
 (let (($x8280 (= cell_4_1 4)))
 (let (($x9291 (= cell_4_1 3)))
 (let (($x2994 (= cell_4_1 2)))
 (let (($x7172 (= cell_4_1 1)))
 (or $x7172 $x2994 $x9291 $x8280 $x4029 $x3674 $x2608 $x81 $x6972)))))))))))
(assert
 (let (($x3508 (= cell_5_1 9)))
 (let (($x8856 (= cell_5_1 8)))
 (let (($x2243 (= cell_5_1 7)))
 (let (($x6709 (= cell_5_1 6)))
 (let (($x1097 (= cell_5_1 5)))
 (let (($x854 (= cell_5_1 4)))
 (let (($x3602 (= cell_5_1 3)))
 (let (($x8736 (= cell_5_1 2)))
 (let (($x8246 (= cell_5_1 1)))
 (or $x8246 $x8736 $x3602 $x854 $x1097 $x6709 $x2243 $x8856 $x3508)))))))))))
(assert
 (let (($x537 (= cell_6_1 9)))
 (let (($x7484 (= cell_6_1 8)))
 (let (($x67 (= cell_6_1 7)))
 (let (($x1257 (= cell_6_1 6)))
 (let (($x1477 (= cell_6_1 5)))
 (let (($x9925 (= cell_6_1 4)))
 (let (($x6221 (= cell_6_1 3)))
 (let (($x8043 (= cell_6_1 2)))
 (let (($x8450 (= cell_6_1 1)))
 (or $x8450 $x8043 $x6221 $x9925 $x1477 $x1257 $x67 $x7484 $x537)))))))))))
(assert
 (let (($x2555 (= cell_7_1 2)))
 (or (= cell_7_1 1) $x2555 (= cell_7_1 3) (= cell_7_1 4) (= cell_7_1 5) (= cell_7_1 6) (= cell_7_1 7) (= cell_7_1 8) (= cell_7_1 9))))
(assert
 (let (($x7130 (= cell_8_1 9)))
 (let (($x6129 (= cell_8_1 8)))
 (let (($x8711 (= cell_8_1 7)))
 (let (($x2746 (= cell_8_1 6)))
 (let (($x6544 (= cell_8_1 5)))
 (let (($x3436 (= cell_8_1 4)))
 (let (($x4454 (= cell_8_1 3)))
 (let (($x4693 (= cell_8_1 2)))
 (let (($x3646 (= cell_8_1 1)))
 (or $x3646 $x4693 $x4454 $x3436 $x6544 $x2746 $x8711 $x6129 $x7130)))))))))))
(assert
 (let (($x6317 (= cell_9_1 9)))
 (let (($x683 (= cell_9_1 8)))
 (let (($x1969 (= cell_9_1 7)))
 (let (($x3695 (= cell_9_1 6)))
 (let (($x4386 (= cell_9_1 5)))
 (let (($x8660 (= cell_9_1 4)))
 (let (($x1330 (= cell_9_1 3)))
 (let (($x7051 (= cell_9_1 2)))
 (let (($x775 (= cell_9_1 1)))
 (or $x775 $x7051 $x1330 $x8660 $x4386 $x3695 $x1969 $x683 $x6317)))))))))))
(assert
 (let (($x1403 (= cell_1_2 2)))
 (or (= cell_1_2 1) $x1403 (= cell_1_2 3) (= cell_1_2 4) (= cell_1_2 5) (= cell_1_2 6) (= cell_1_2 7) (= cell_1_2 8) (= cell_1_2 9))))
(assert
 (let (($x1355 (= cell_2_2 9)))
 (let (($x14 (= cell_2_2 8)))
 (let (($x879 (= cell_2_2 7)))
 (let (($x10030 (= cell_2_2 6)))
 (let (($x10134 (= cell_2_2 5)))
 (let (($x1568 (= cell_2_2 4)))
 (let (($x4909 (= cell_2_2 3)))
 (let (($x4664 (= cell_2_2 2)))
 (let (($x10052 (= cell_2_2 1)))
 (or $x10052 $x4664 $x4909 $x1568 $x10134 $x10030 $x879 $x14 $x1355)))))))))))
(assert
 (let (($x5066 (= cell_3_2 9)))
 (let (($x5674 (= cell_3_2 8)))
 (let (($x2249 (= cell_3_2 7)))
 (let (($x3836 (= cell_3_2 6)))
 (let (($x9456 (= cell_3_2 5)))
 (let (($x3742 (= cell_3_2 4)))
 (let (($x959 (= cell_3_2 3)))
 (let (($x3014 (= cell_3_2 2)))
 (let (($x4216 (= cell_3_2 1)))
 (or $x4216 $x3014 $x959 $x3742 $x9456 $x3836 $x2249 $x5674 $x5066)))))))))))
(assert
 (let (($x9658 (= cell_4_2 9)))
 (let (($x9736 (= cell_4_2 8)))
 (let (($x121 (= cell_4_2 7)))
 (let (($x6349 (= cell_4_2 6)))
 (let (($x7087 (= cell_4_2 5)))
 (let (($x455 (= cell_4_2 4)))
 (let (($x4350 (= cell_4_2 3)))
 (let (($x990 (= cell_4_2 2)))
 (let (($x9332 (= cell_4_2 1)))
 (or $x9332 $x990 $x4350 $x455 $x7087 $x6349 $x121 $x9736 $x9658)))))))))))
(assert
 (let (($x3480 (= cell_5_2 9)))
 (let (($x9139 (= cell_5_2 8)))
 (let (($x348 (= cell_5_2 7)))
 (let (($x7756 (= cell_5_2 6)))
 (let (($x8028 (= cell_5_2 5)))
 (let (($x3020 (= cell_5_2 4)))
 (let (($x8780 (= cell_5_2 3)))
 (let (($x2132 (= cell_5_2 2)))
 (let (($x3862 (= cell_5_2 1)))
 (or $x3862 $x2132 $x8780 $x3020 $x8028 $x7756 $x348 $x9139 $x3480)))))))))))
(assert
 (let (($x9038 (= cell_6_2 9)))
 (let (($x7725 (= cell_6_2 8)))
 (let (($x336 (= cell_6_2 7)))
 (let (($x8991 (= cell_6_2 6)))
 (let (($x2751 (= cell_6_2 5)))
 (let (($x7075 (= cell_6_2 4)))
 (let (($x8542 (= cell_6_2 3)))
 (let (($x9434 (= cell_6_2 2)))
 (let (($x7046 (= cell_6_2 1)))
 (or $x7046 $x9434 $x8542 $x7075 $x2751 $x8991 $x336 $x7725 $x9038)))))))))))
(assert
 (let (($x2477 (= cell_7_2 1)))
 (or $x2477 (= cell_7_2 2) (= cell_7_2 3) (= cell_7_2 4) (= cell_7_2 5) (= cell_7_2 6) (= cell_7_2 7) (= cell_7_2 8) (= cell_7_2 9))))
(assert
 (let (($x1519 (= cell_8_2 9)))
 (let (($x2443 (= cell_8_2 8)))
 (let (($x2850 (= cell_8_2 7)))
 (let (($x998 (= cell_8_2 6)))
 (let (($x7173 (= cell_8_2 5)))
 (let (($x7626 (= cell_8_2 4)))
 (let (($x1322 (= cell_8_2 3)))
 (let (($x9482 (= cell_8_2 2)))
 (let (($x5606 (= cell_8_2 1)))
 (or $x5606 $x9482 $x1322 $x7626 $x7173 $x998 $x2850 $x2443 $x1519)))))))))))
(assert
 (let (($x7786 (= cell_9_2 9)))
 (let (($x9972 (= cell_9_2 8)))
 (let (($x7182 (= cell_9_2 7)))
 (let (($x5129 (= cell_9_2 6)))
 (let (($x6928 (= cell_9_2 5)))
 (let (($x5455 (= cell_9_2 4)))
 (let (($x391 (= cell_9_2 3)))
 (let (($x6257 (= cell_9_2 2)))
 (let (($x7570 (= cell_9_2 1)))
 (or $x7570 $x6257 $x391 $x5455 $x6928 $x5129 $x7182 $x9972 $x7786)))))))))))
(assert
 (let (($x3982 (= cell_1_3 9)))
 (let (($x4668 (= cell_1_3 8)))
 (let (($x1769 (= cell_1_3 7)))
 (let (($x9639 (= cell_1_3 6)))
 (let (($x8362 (= cell_1_3 5)))
 (let (($x1838 (= cell_1_3 4)))
 (let (($x5944 (= cell_1_3 3)))
 (let (($x6278 (= cell_1_3 2)))
 (let (($x9971 (= cell_1_3 1)))
 (or $x9971 $x6278 $x5944 $x1838 $x8362 $x9639 $x1769 $x4668 $x3982)))))))))))
(assert
 (let (($x5383 (= cell_2_3 9)))
 (let (($x1772 (= cell_2_3 8)))
 (let (($x306 (= cell_2_3 7)))
 (let (($x5893 (= cell_2_3 6)))
 (let (($x8178 (= cell_2_3 5)))
 (let (($x2294 (= cell_2_3 4)))
 (let (($x6520 (= cell_2_3 3)))
 (let (($x6879 (= cell_2_3 2)))
 (let (($x9296 (= cell_2_3 1)))
 (or $x9296 $x6879 $x6520 $x2294 $x8178 $x5893 $x306 $x1772 $x5383)))))))))))
(assert
 (let (($x6284 (= cell_3_3 9)))
 (let (($x7718 (= cell_3_3 8)))
 (let (($x5127 (= cell_3_3 7)))
 (let (($x7610 (= cell_3_3 6)))
 (let (($x2998 (= cell_3_3 5)))
 (let (($x7498 (= cell_3_3 4)))
 (let (($x7875 (= cell_3_3 3)))
 (let (($x1707 (= cell_3_3 2)))
 (let (($x28 (= cell_3_3 1)))
 (or $x28 $x1707 $x7875 $x7498 $x2998 $x7610 $x5127 $x7718 $x6284)))))))))))
(assert
 (let (($x2654 (= cell_4_3 9)))
 (let (($x9018 (= cell_4_3 8)))
 (let (($x4189 (= cell_4_3 7)))
 (let (($x1979 (= cell_4_3 6)))
 (let (($x9463 (= cell_4_3 5)))
 (let (($x2992 (= cell_4_3 4)))
 (let (($x7855 (= cell_4_3 3)))
 (let (($x6992 (= cell_4_3 2)))
 (let (($x8627 (= cell_4_3 1)))
 (or $x8627 $x6992 $x7855 $x2992 $x9463 $x1979 $x4189 $x9018 $x2654)))))))))))
(assert
 (let (($x1849 (= cell_5_3 1)))
 (or $x1849 (= cell_5_3 2) (= cell_5_3 3) (= cell_5_3 4) (= cell_5_3 5) (= cell_5_3 6) (= cell_5_3 7) (= cell_5_3 8) (= cell_5_3 9))))
(assert
 (let (($x1424 (= cell_6_3 2)))
 (or (= cell_6_3 1) $x1424 (= cell_6_3 3) (= cell_6_3 4) (= cell_6_3 5) (= cell_6_3 6) (= cell_6_3 7) (= cell_6_3 8) (= cell_6_3 9))))
(assert
 (let (($x8986 (= cell_7_3 2)))
 (let (($x8756 (= cell_7_3 1)))
 (or $x8756 $x8986 (= cell_7_3 3) (= cell_7_3 4) (= cell_7_3 5) (= cell_7_3 6) (= cell_7_3 7) (= cell_7_3 8) (= cell_7_3 9)))))
(assert
 (let (($x8307 (= cell_8_3 9)))
 (let (($x634 (= cell_8_3 8)))
 (let (($x8104 (= cell_8_3 7)))
 (let (($x6312 (= cell_8_3 6)))
 (let (($x9007 (= cell_8_3 5)))
 (let (($x5739 (= cell_8_3 4)))
 (let (($x103 (= cell_8_3 3)))
 (let (($x2883 (= cell_8_3 2)))
 (let (($x756 (= cell_8_3 1)))
 (or $x756 $x2883 $x103 $x5739 $x9007 $x6312 $x8104 $x634 $x8307)))))))))))
(assert
 (let (($x2274 (= cell_9_3 9)))
 (let (($x345 (= cell_9_3 8)))
 (let (($x1643 (= cell_9_3 7)))
 (let (($x3028 (= cell_9_3 6)))
 (let (($x9277 (= cell_9_3 5)))
 (let (($x3721 (= cell_9_3 4)))
 (let (($x4332 (= cell_9_3 3)))
 (let (($x3538 (= cell_9_3 2)))
 (let (($x7844 (= cell_9_3 1)))
 (or $x7844 $x3538 $x4332 $x3721 $x9277 $x3028 $x1643 $x345 $x2274)))))))))))
(assert
 (let (($x10147 (= cell_1_4 1)))
 (or $x10147 (= cell_1_4 2) (= cell_1_4 3) (= cell_1_4 4) (= cell_1_4 5) (= cell_1_4 6) (= cell_1_4 7) (= cell_1_4 8) (= cell_1_4 9))))
(assert
 (let (($x2855 (= cell_2_4 9)))
 (let (($x5068 (= cell_2_4 8)))
 (let (($x3266 (= cell_2_4 7)))
 (let (($x6088 (= cell_2_4 6)))
 (let (($x2019 (= cell_2_4 5)))
 (let (($x2911 (= cell_2_4 4)))
 (let (($x2595 (= cell_2_4 3)))
 (let (($x5125 (= cell_2_4 2)))
 (let (($x2696 (= cell_2_4 1)))
 (or $x2696 $x5125 $x2595 $x2911 $x2019 $x6088 $x3266 $x5068 $x2855)))))))))))
(assert
 (let (($x7705 (= cell_3_4 9)))
 (let (($x8913 (= cell_3_4 8)))
 (let (($x6041 (= cell_3_4 7)))
 (let (($x6174 (= cell_3_4 6)))
 (let (($x3526 (= cell_3_4 5)))
 (let (($x3403 (= cell_3_4 4)))
 (let (($x3733 (= cell_3_4 3)))
 (let (($x4915 (= cell_3_4 2)))
 (let (($x9454 (= cell_3_4 1)))
 (or $x9454 $x4915 $x3733 $x3403 $x3526 $x6174 $x6041 $x8913 $x7705)))))))))))
(assert
 (let (($x3434 (= cell_4_4 2)))
 (or (= cell_4_4 1) $x3434 (= cell_4_4 3) (= cell_4_4 4) (= cell_4_4 5) (= cell_4_4 6) (= cell_4_4 7) (= cell_4_4 8) (= cell_4_4 9))))
(assert
 (let (($x10073 (= cell_5_4 9)))
 (let (($x864 (= cell_5_4 8)))
 (let (($x8321 (= cell_5_4 7)))
 (let (($x8540 (= cell_5_4 6)))
 (let (($x7715 (= cell_5_4 5)))
 (let (($x10099 (= cell_5_4 4)))
 (let (($x7026 (= cell_5_4 3)))
 (let (($x7527 (= cell_5_4 2)))
 (let (($x2775 (= cell_5_4 1)))
 (or $x2775 $x7527 $x7026 $x10099 $x7715 $x8540 $x8321 $x864 $x10073)))))))))))
(assert
 (let (($x7973 (= cell_6_4 9)))
 (let (($x5871 (= cell_6_4 8)))
 (let (($x2529 (= cell_6_4 7)))
 (let (($x3158 (= cell_6_4 6)))
 (let (($x424 (= cell_6_4 5)))
 (let (($x1496 (= cell_6_4 4)))
 (let (($x8663 (= cell_6_4 3)))
 (let (($x8636 (= cell_6_4 2)))
 (let (($x5751 (= cell_6_4 1)))
 (or $x5751 $x8636 $x8663 $x1496 $x424 $x3158 $x2529 $x5871 $x7973)))))))))))
(assert
 (let (($x8208 (= cell_7_4 9)))
 (let (($x3612 (= cell_7_4 8)))
 (let (($x2453 (= cell_7_4 7)))
 (let (($x1559 (= cell_7_4 6)))
 (let (($x4391 (= cell_7_4 5)))
 (let (($x27 (= cell_7_4 4)))
 (let (($x2949 (= cell_7_4 3)))
 (let (($x5898 (= cell_7_4 2)))
 (let (($x4074 (= cell_7_4 1)))
 (or $x4074 $x5898 $x2949 $x27 $x4391 $x1559 $x2453 $x3612 $x8208)))))))))))
(assert
 (let (($x4198 (= cell_8_4 9)))
 (let (($x8850 (= cell_8_4 8)))
 (let (($x9601 (= cell_8_4 7)))
 (let (($x8721 (= cell_8_4 6)))
 (let (($x8015 (= cell_8_4 5)))
 (let (($x2094 (= cell_8_4 4)))
 (let (($x2204 (= cell_8_4 3)))
 (let (($x6886 (= cell_8_4 2)))
 (let (($x2843 (= cell_8_4 1)))
 (or $x2843 $x6886 $x2204 $x2094 $x8015 $x8721 $x9601 $x8850 $x4198)))))))))))
(assert
 (let (($x3613 (= cell_9_4 9)))
 (let (($x4179 (= cell_9_4 8)))
 (let (($x7971 (= cell_9_4 7)))
 (let (($x874 (= cell_9_4 6)))
 (let (($x9670 (= cell_9_4 5)))
 (let (($x2764 (= cell_9_4 4)))
 (let (($x1913 (= cell_9_4 3)))
 (let (($x9524 (= cell_9_4 2)))
 (let (($x4127 (= cell_9_4 1)))
 (or $x4127 $x9524 $x1913 $x2764 $x9670 $x874 $x7971 $x4179 $x3613)))))))))))
(assert
 (let (($x6445 (= cell_1_5 9)))
 (let (($x2999 (= cell_1_5 8)))
 (let (($x3617 (= cell_1_5 7)))
 (let (($x4385 (= cell_1_5 6)))
 (let (($x9613 (= cell_1_5 5)))
 (let (($x7135 (= cell_1_5 4)))
 (let (($x7425 (= cell_1_5 3)))
 (let (($x410 (= cell_1_5 2)))
 (let (($x8235 (= cell_1_5 1)))
 (or $x8235 $x410 $x7425 $x7135 $x9613 $x4385 $x3617 $x2999 $x6445)))))))))))
(assert
 (let (($x5867 (= cell_2_5 2)))
 (or (= cell_2_5 1) $x5867 (= cell_2_5 3) (= cell_2_5 4) (= cell_2_5 5) (= cell_2_5 6) (= cell_2_5 7) (= cell_2_5 8) (= cell_2_5 9))))
(assert
 (let (($x9079 (= cell_3_5 9)))
 (let (($x2089 (= cell_3_5 8)))
 (let (($x7163 (= cell_3_5 7)))
 (let (($x3072 (= cell_3_5 6)))
 (let (($x550 (= cell_3_5 5)))
 (let (($x9062 (= cell_3_5 4)))
 (let (($x3800 (= cell_3_5 3)))
 (let (($x977 (= cell_3_5 2)))
 (let (($x6729 (= cell_3_5 1)))
 (or $x6729 $x977 $x3800 $x9062 $x550 $x3072 $x7163 $x2089 $x9079)))))))))))
(assert
 (let (($x10212 (= cell_4_5 9)))
 (let (($x7858 (= cell_4_5 8)))
 (let (($x1323 (= cell_4_5 7)))
 (let (($x13 (= cell_4_5 6)))
 (let (($x142 (= cell_4_5 5)))
 (let (($x6635 (= cell_4_5 4)))
 (let (($x7988 (= cell_4_5 3)))
 (let (($x1149 (= cell_4_5 2)))
 (let (($x9618 (= cell_4_5 1)))
 (or $x9618 $x1149 $x7988 $x6635 $x142 $x13 $x1323 $x7858 $x10212)))))))))))
(assert
 (let (($x1405 (= cell_5_5 9)))
 (let (($x7819 (= cell_5_5 8)))
 (let (($x7286 (= cell_5_5 7)))
 (let (($x1209 (= cell_5_5 6)))
 (let (($x5540 (= cell_5_5 5)))
 (let (($x7650 (= cell_5_5 4)))
 (let (($x3481 (= cell_5_5 3)))
 (let (($x9339 (= cell_5_5 2)))
 (let (($x8210 (= cell_5_5 1)))
 (or $x8210 $x9339 $x3481 $x7650 $x5540 $x1209 $x7286 $x7819 $x1405)))))))))))
(assert
 (let (($x8667 (= cell_6_5 9)))
 (let (($x8980 (= cell_6_5 8)))
 (let (($x7000 (= cell_6_5 7)))
 (let (($x7396 (= cell_6_5 6)))
 (let (($x3092 (= cell_6_5 5)))
 (let (($x6812 (= cell_6_5 4)))
 (let (($x2488 (= cell_6_5 3)))
 (let (($x5023 (= cell_6_5 2)))
 (let (($x6469 (= cell_6_5 1)))
 (or $x6469 $x5023 $x2488 $x6812 $x3092 $x7396 $x7000 $x8980 $x8667)))))))))))
(assert
 (let (($x9584 (= cell_7_5 9)))
 (let (($x2779 (= cell_7_5 8)))
 (let (($x4656 (= cell_7_5 7)))
 (let (($x9609 (= cell_7_5 6)))
 (let (($x10116 (= cell_7_5 5)))
 (let (($x6227 (= cell_7_5 4)))
 (let (($x5753 (= cell_7_5 3)))
 (let (($x2009 (= cell_7_5 2)))
 (let (($x1716 (= cell_7_5 1)))
 (or $x1716 $x2009 $x5753 $x6227 $x10116 $x9609 $x4656 $x2779 $x9584)))))))))))
(assert
 (let (($x6233 (= cell_8_5 9)))
 (let (($x5937 (= cell_8_5 8)))
 (let (($x8262 (= cell_8_5 7)))
 (let (($x8236 (= cell_8_5 6)))
 (let (($x1865 (= cell_8_5 5)))
 (let (($x10207 (= cell_8_5 4)))
 (let (($x5802 (= cell_8_5 3)))
 (let (($x6752 (= cell_8_5 2)))
 (let (($x6412 (= cell_8_5 1)))
 (or $x6412 $x6752 $x5802 $x10207 $x1865 $x8236 $x8262 $x5937 $x6233)))))))))))
(assert
 (let (($x286 (= cell_9_5 1)))
 (or $x286 (= cell_9_5 2) (= cell_9_5 3) (= cell_9_5 4) (= cell_9_5 5) (= cell_9_5 6) (= cell_9_5 7) (= cell_9_5 8) (= cell_9_5 9))))
(assert
 (let (($x2739 (= cell_1_6 9)))
 (let (($x6265 (= cell_1_6 8)))
 (let (($x4002 (= cell_1_6 7)))
 (let (($x729 (= cell_1_6 6)))
 (let (($x1853 (= cell_1_6 5)))
 (let (($x9496 (= cell_1_6 4)))
 (let (($x3304 (= cell_1_6 3)))
 (let (($x9873 (= cell_1_6 2)))
 (let (($x9409 (= cell_1_6 1)))
 (or $x9409 $x9873 $x3304 $x9496 $x1853 $x729 $x4002 $x6265 $x2739)))))))))))
(assert
 (let (($x9935 (= cell_2_6 9)))
 (let (($x1204 (= cell_2_6 8)))
 (let (($x7259 (= cell_2_6 7)))
 (let (($x8655 (= cell_2_6 6)))
 (let (($x7072 (= cell_2_6 5)))
 (let (($x1394 (= cell_2_6 4)))
 (let (($x7098 (= cell_2_6 3)))
 (let (($x7582 (= cell_2_6 2)))
 (let (($x2633 (= cell_2_6 1)))
 (or $x2633 $x7582 $x7098 $x1394 $x7072 $x8655 $x7259 $x1204 $x9935)))))))))))
(assert
 (let (($x2471 (= cell_3_6 9)))
 (let (($x755 (= cell_3_6 8)))
 (let (($x3751 (= cell_3_6 7)))
 (let (($x6519 (= cell_3_6 6)))
 (let (($x4092 (= cell_3_6 5)))
 (let (($x4812 (= cell_3_6 4)))
 (let (($x9856 (= cell_3_6 3)))
 (let (($x7778 (= cell_3_6 2)))
 (let (($x8170 (= cell_3_6 1)))
 (or $x8170 $x7778 $x9856 $x4812 $x4092 $x6519 $x3751 $x755 $x2471)))))))))))
(assert
 (let (($x4639 (= cell_4_6 9)))
 (let (($x322 (= cell_4_6 8)))
 (let (($x1990 (= cell_4_6 7)))
 (let (($x8774 (= cell_4_6 6)))
 (let (($x4177 (= cell_4_6 5)))
 (let (($x9082 (= cell_4_6 4)))
 (let (($x3958 (= cell_4_6 3)))
 (let (($x2057 (= cell_4_6 2)))
 (let (($x9543 (= cell_4_6 1)))
 (or $x9543 $x2057 $x3958 $x9082 $x4177 $x8774 $x1990 $x322 $x4639)))))))))))
(assert
 (let (($x7148 (= cell_5_6 9)))
 (let (($x9378 (= cell_5_6 8)))
 (let (($x4277 (= cell_5_6 7)))
 (let (($x7385 (= cell_5_6 6)))
 (let (($x3966 (= cell_5_6 5)))
 (let (($x5627 (= cell_5_6 4)))
 (let (($x5712 (= cell_5_6 3)))
 (let (($x9998 (= cell_5_6 2)))
 (let (($x6783 (= cell_5_6 1)))
 (or $x6783 $x9998 $x5712 $x5627 $x3966 $x7385 $x4277 $x9378 $x7148)))))))))))
(assert
 (let (($x7788 (= cell_6_6 1)))
 (or $x7788 (= cell_6_6 2) (= cell_6_6 3) (= cell_6_6 4) (= cell_6_6 5) (= cell_6_6 6) (= cell_6_6 7) (= cell_6_6 8) (= cell_6_6 9))))
(assert
 (let (($x5683 (= cell_7_6 9)))
 (let (($x9061 (= cell_7_6 8)))
 (let (($x3144 (= cell_7_6 7)))
 (let (($x5237 (= cell_7_6 6)))
 (let (($x8391 (= cell_7_6 5)))
 (let (($x1917 (= cell_7_6 4)))
 (let (($x4558 (= cell_7_6 3)))
 (let (($x3708 (= cell_7_6 2)))
 (let (($x4644 (= cell_7_6 1)))
 (or $x4644 $x3708 $x4558 $x1917 $x8391 $x5237 $x3144 $x9061 $x5683)))))))))))
(assert
 (let (($x9415 (= cell_8_6 2)))
 (or (= cell_8_6 1) $x9415 (= cell_8_6 3) (= cell_8_6 4) (= cell_8_6 5) (= cell_8_6 6) (= cell_8_6 7) (= cell_8_6 8) (= cell_8_6 9))))
(assert
 (let (($x5182 (= cell_9_6 2)))
 (let (($x5709 (= cell_9_6 1)))
 (or $x5709 $x5182 (= cell_9_6 3) (= cell_9_6 4) (= cell_9_6 5) (= cell_9_6 6) (= cell_9_6 7) (= cell_9_6 8) (= cell_9_6 9)))))
(assert
 (let (($x475 (= cell_1_7 9)))
 (let (($x7901 (= cell_1_7 8)))
 (let (($x4838 (= cell_1_7 7)))
 (let (($x2209 (= cell_1_7 6)))
 (let (($x5130 (= cell_1_7 5)))
 (let (($x614 (= cell_1_7 4)))
 (let (($x1109 (= cell_1_7 3)))
 (let (($x726 (= cell_1_7 2)))
 (let (($x1676 (= cell_1_7 1)))
 (or $x1676 $x726 $x1109 $x614 $x5130 $x2209 $x4838 $x7901 $x475)))))))))))
(assert
 (let (($x5810 (= cell_2_7 9)))
 (let (($x3263 (= cell_2_7 8)))
 (let (($x5868 (= cell_2_7 7)))
 (let (($x7783 (= cell_2_7 6)))
 (let (($x2787 (= cell_2_7 5)))
 (let (($x2664 (= cell_2_7 4)))
 (let (($x2175 (= cell_2_7 3)))
 (let (($x8338 (= cell_2_7 2)))
 (let (($x10121 (= cell_2_7 1)))
 (or $x10121 $x8338 $x2175 $x2664 $x2787 $x7783 $x5868 $x3263 $x5810)))))))))))
(assert
 (let (($x6976 (= cell_3_7 9)))
 (let (($x1255 (= cell_3_7 8)))
 (let (($x6857 (= cell_3_7 7)))
 (let (($x7309 (= cell_3_7 6)))
 (let (($x6696 (= cell_3_7 5)))
 (let (($x9523 (= cell_3_7 4)))
 (let (($x4760 (= cell_3_7 3)))
 (let (($x4803 (= cell_3_7 2)))
 (let (($x4824 (= cell_3_7 1)))
 (or $x4824 $x4803 $x4760 $x9523 $x6696 $x7309 $x6857 $x1255 $x6976)))))))))))
(assert
 (let (($x898 (= cell_4_7 9)))
 (let (($x3866 (= cell_4_7 8)))
 (let (($x2942 (= cell_4_7 7)))
 (let (($x333 (= cell_4_7 6)))
 (let (($x2778 (= cell_4_7 5)))
 (let (($x5456 (= cell_4_7 4)))
 (let (($x5390 (= cell_4_7 3)))
 (let (($x2692 (= cell_4_7 2)))
 (let (($x3174 (= cell_4_7 1)))
 (or $x3174 $x2692 $x5390 $x5456 $x2778 $x333 $x2942 $x3866 $x898)))))))))))
(assert
 (let (($x3308 (= cell_5_7 2)))
 (or (= cell_5_7 1) $x3308 (= cell_5_7 3) (= cell_5_7 4) (= cell_5_7 5) (= cell_5_7 6) (= cell_5_7 7) (= cell_5_7 8) (= cell_5_7 9))))
(assert
 (let (($x9624 (= cell_6_7 9)))
 (let (($x1339 (= cell_6_7 8)))
 (let (($x7914 (= cell_6_7 7)))
 (let (($x466 (= cell_6_7 6)))
 (let (($x304 (= cell_6_7 5)))
 (let (($x4938 (= cell_6_7 4)))
 (let (($x5218 (= cell_6_7 3)))
 (let (($x9508 (= cell_6_7 2)))
 (let (($x4515 (= cell_6_7 1)))
 (or $x4515 $x9508 $x5218 $x4938 $x304 $x466 $x7914 $x1339 $x9624)))))))))))
(assert
 (let (($x2293 (= cell_7_7 9)))
 (let (($x9486 (= cell_7_7 8)))
 (let (($x6634 (= cell_7_7 7)))
 (let (($x9021 (= cell_7_7 6)))
 (let (($x9498 (= cell_7_7 5)))
 (let (($x2670 (= cell_7_7 4)))
 (let (($x7943 (= cell_7_7 3)))
 (let (($x4554 (= cell_7_7 2)))
 (let (($x8365 (= cell_7_7 1)))
 (or $x8365 $x4554 $x7943 $x2670 $x9498 $x9021 $x6634 $x9486 $x2293)))))))))))
(assert
 (let (($x3854 (= cell_8_7 1)))
 (or $x3854 (= cell_8_7 2) (= cell_8_7 3) (= cell_8_7 4) (= cell_8_7 5) (= cell_8_7 6) (= cell_8_7 7) (= cell_8_7 8) (= cell_8_7 9))))
(assert
 (let (($x2414 (= cell_9_7 2)))
 (let (($x5941 (= cell_9_7 1)))
 (or $x5941 $x2414 (= cell_9_7 3) (= cell_9_7 4) (= cell_9_7 5) (= cell_9_7 6) (= cell_9_7 7) (= cell_9_7 8) (= cell_9_7 9)))))
(assert
 (let (($x2296 (= cell_1_8 9)))
 (let (($x2586 (= cell_1_8 8)))
 (let (($x1912 (= cell_1_8 7)))
 (let (($x4666 (= cell_1_8 6)))
 (let (($x6143 (= cell_1_8 5)))
 (let (($x7717 (= cell_1_8 4)))
 (let (($x5011 (= cell_1_8 3)))
 (let (($x2573 (= cell_1_8 2)))
 (let (($x3718 (= cell_1_8 1)))
 (or $x3718 $x2573 $x5011 $x7717 $x6143 $x4666 $x1912 $x2586 $x2296)))))))))))
(assert
 (let (($x2966 (= cell_2_8 9)))
 (let (($x4584 (= cell_2_8 8)))
 (let (($x8927 (= cell_2_8 7)))
 (let (($x887 (= cell_2_8 6)))
 (let (($x2048 (= cell_2_8 5)))
 (let (($x4779 (= cell_2_8 4)))
 (let (($x4348 (= cell_2_8 3)))
 (let (($x7044 (= cell_2_8 2)))
 (let (($x4720 (= cell_2_8 1)))
 (or $x4720 $x7044 $x4348 $x4779 $x2048 $x887 $x8927 $x4584 $x2966)))))))))))
(assert
 (let (($x3220 (= cell_3_8 9)))
 (let (($x9804 (= cell_3_8 8)))
 (let (($x3697 (= cell_3_8 7)))
 (let (($x2698 (= cell_3_8 6)))
 (let (($x4526 (= cell_3_8 5)))
 (let (($x9612 (= cell_3_8 4)))
 (let (($x3792 (= cell_3_8 3)))
 (let (($x5114 (= cell_3_8 2)))
 (let (($x4877 (= cell_3_8 1)))
 (or $x4877 $x5114 $x3792 $x9612 $x4526 $x2698 $x3697 $x9804 $x3220)))))))))))
(assert
 (let (($x2648 (= cell_4_8 1)))
 (or $x2648 (= cell_4_8 2) (= cell_4_8 3) (= cell_4_8 4) (= cell_4_8 5) (= cell_4_8 6) (= cell_4_8 7) (= cell_4_8 8) (= cell_4_8 9))))
(assert
 (let (($x7692 (= cell_5_8 2)))
 (let (($x4132 (= cell_5_8 1)))
 (or $x4132 $x7692 (= cell_5_8 3) (= cell_5_8 4) (= cell_5_8 5) (= cell_5_8 6) (= cell_5_8 7) (= cell_5_8 8) (= cell_5_8 9)))))
(assert
 (let (($x3461 (= cell_6_8 9)))
 (let (($x5104 (= cell_6_8 8)))
 (let (($x10038 (= cell_6_8 7)))
 (let (($x3155 (= cell_6_8 6)))
 (let (($x1688 (= cell_6_8 5)))
 (let (($x7329 (= cell_6_8 4)))
 (let (($x1655 (= cell_6_8 3)))
 (let (($x4331 (= cell_6_8 2)))
 (let (($x6249 (= cell_6_8 1)))
 (or $x6249 $x4331 $x1655 $x7329 $x1688 $x3155 $x10038 $x5104 $x3461)))))))))))
(assert
 (let (($x7509 (= cell_7_8 9)))
 (let (($x188 (= cell_7_8 8)))
 (let (($x4206 (= cell_7_8 7)))
 (let (($x886 (= cell_7_8 6)))
 (let (($x1672 (= cell_7_8 5)))
 (let (($x1128 (= cell_7_8 4)))
 (let (($x4343 (= cell_7_8 3)))
 (let (($x10126 (= cell_7_8 2)))
 (let (($x295 (= cell_7_8 1)))
 (or $x295 $x10126 $x4343 $x1128 $x1672 $x886 $x4206 $x188 $x7509)))))))))))
(assert
 (let (($x335 (= cell_8_8 2)))
 (let (($x186 (= cell_8_8 1)))
 (or $x186 $x335 (= cell_8_8 3) (= cell_8_8 4) (= cell_8_8 5) (= cell_8_8 6) (= cell_8_8 7) (= cell_8_8 8) (= cell_8_8 9)))))
(assert
 (let (($x8642 (= cell_9_8 2)))
 (let (($x686 (= cell_9_8 1)))
 (or $x686 $x8642 (= cell_9_8 3) (= cell_9_8 4) (= cell_9_8 5) (= cell_9_8 6) (= cell_9_8 7) (= cell_9_8 8) (= cell_9_8 9)))))
(assert
 (let (($x399 (= cell_1_9 9)))
 (let (($x3831 (= cell_1_9 8)))
 (let (($x1846 (= cell_1_9 7)))
 (let (($x8639 (= cell_1_9 6)))
 (let (($x3991 (= cell_1_9 5)))
 (let (($x3632 (= cell_1_9 4)))
 (let (($x1434 (= cell_1_9 3)))
 (let (($x9273 (= cell_1_9 2)))
 (let (($x9807 (= cell_1_9 1)))
 (or $x9807 $x9273 $x1434 $x3632 $x3991 $x8639 $x1846 $x3831 $x399)))))))))))
(assert
 (let (($x7161 (= cell_2_9 1)))
 (or $x7161 (= cell_2_9 2) (= cell_2_9 3) (= cell_2_9 4) (= cell_2_9 5) (= cell_2_9 6) (= cell_2_9 7) (= cell_2_9 8) (= cell_2_9 9))))
(assert
 (let (($x8829 (= cell_3_9 2)))
 (or (= cell_3_9 1) $x8829 (= cell_3_9 3) (= cell_3_9 4) (= cell_3_9 5) (= cell_3_9 6) (= cell_3_9 7) (= cell_3_9 8) (= cell_3_9 9))))
(assert
 (let (($x2088 (= cell_4_9 9)))
 (let (($x6593 (= cell_4_9 8)))
 (let (($x5191 (= cell_4_9 7)))
 (let (($x685 (= cell_4_9 6)))
 (let (($x4625 (= cell_4_9 5)))
 (let (($x3760 (= cell_4_9 4)))
 (let (($x8505 (= cell_4_9 3)))
 (let (($x4479 (= cell_4_9 2)))
 (let (($x5952 (= cell_4_9 1)))
 (or $x5952 $x4479 $x8505 $x3760 $x4625 $x685 $x5191 $x6593 $x2088)))))))))))
(assert
 (let (($x1562 (= cell_5_9 9)))
 (let (($x6904 (= cell_5_9 8)))
 (let (($x7996 (= cell_5_9 7)))
 (let (($x2931 (= cell_5_9 6)))
 (let (($x5387 (= cell_5_9 5)))
 (let (($x4986 (= cell_5_9 4)))
 (let (($x7780 (= cell_5_9 3)))
 (let (($x7092 (= cell_5_9 2)))
 (let (($x3574 (= cell_5_9 1)))
 (or $x3574 $x7092 $x7780 $x4986 $x5387 $x2931 $x7996 $x6904 $x1562)))))))))))
(assert
 (let (($x5435 (= cell_6_9 2)))
 (let (($x5973 (= cell_6_9 1)))
 (or $x5973 $x5435 (= cell_6_9 3) (= cell_6_9 4) (= cell_6_9 5) (= cell_6_9 6) (= cell_6_9 7) (= cell_6_9 8) (= cell_6_9 9)))))
(assert
 (let (($x6668 (= cell_7_9 9)))
 (let (($x3580 (= cell_7_9 8)))
 (let (($x4966 (= cell_7_9 7)))
 (let (($x3820 (= cell_7_9 6)))
 (let (($x1047 (= cell_7_9 5)))
 (let (($x3573 (= cell_7_9 4)))
 (let (($x505 (= cell_7_9 3)))
 (let (($x6418 (= cell_7_9 2)))
 (let (($x1103 (= cell_7_9 1)))
 (or $x1103 $x6418 $x505 $x3573 $x1047 $x3820 $x4966 $x3580 $x6668)))))))))))
(assert
 (let (($x8077 (= cell_8_9 2)))
 (let (($x607 (= cell_8_9 1)))
 (or $x607 $x8077 (= cell_8_9 3) (= cell_8_9 4) (= cell_8_9 5) (= cell_8_9 6) (= cell_8_9 7) (= cell_8_9 8) (= cell_8_9 9)))))
(assert
 (let (($x5334 (= cell_9_9 2)))
 (let (($x154 (= cell_9_9 1)))
 (or $x154 $x5334 (= cell_9_9 3) (= cell_9_9 4) (= cell_9_9 5) (= cell_9_9 6) (= cell_9_9 7) (= cell_9_9 8) (= cell_9_9 9)))))
(assert
 (and (distinct cell_1_1 cell_1_2 cell_1_3 cell_1_4 cell_1_5 cell_1_6 cell_1_7 cell_1_8 cell_1_9) true))
(assert
 (and (distinct cell_2_1 cell_2_2 cell_2_3 cell_2_4 cell_2_5 cell_2_6 cell_2_7 cell_2_8 cell_2_9) true))
(assert
 (and (distinct cell_3_1 cell_3_2 cell_3_3 cell_3_4 cell_3_5 cell_3_6 cell_3_7 cell_3_8 cell_3_9) true))
(assert
 (and (distinct cell_4_1 cell_4_2 cell_4_3 cell_4_4 cell_4_5 cell_4_6 cell_4_7 cell_4_8 cell_4_9) true))
(assert
 (and (distinct cell_5_1 cell_5_2 cell_5_3 cell_5_4 cell_5_5 cell_5_6 cell_5_7 cell_5_8 cell_5_9) true))
(assert
 (and (distinct cell_6_1 cell_6_2 cell_6_3 cell_6_4 cell_6_5 cell_6_6 cell_6_7 cell_6_8 cell_6_9) true))
(assert
 (and (distinct cell_7_1 cell_7_2 cell_7_3 cell_7_4 cell_7_5 cell_7_6 cell_7_7 cell_7_8 cell_7_9) true))
(assert
 (and (distinct cell_8_1 cell_8_2 cell_8_3 cell_8_4 cell_8_5 cell_8_6 cell_8_7 cell_8_8 cell_8_9) true))
(assert
 (and (distinct cell_9_1 cell_9_2 cell_9_3 cell_9_4 cell_9_5 cell_9_6 cell_9_7 cell_9_8 cell_9_9) true))
(assert
 (and (distinct cell_1_1 cell_2_1 cell_3_1 cell_4_1 cell_5_1 cell_6_1 cell_7_1 cell_8_1 cell_9_1) true))
(assert
 (and (distinct cell_1_2 cell_2_2 cell_3_2 cell_4_2 cell_5_2 cell_6_2 cell_7_2 cell_8_2 cell_9_2) true))
(assert
 (and (distinct cell_1_3 cell_2_3 cell_3_3 cell_4_3 cell_5_3 cell_6_3 cell_7_3 cell_8_3 cell_9_3) true))
(assert
 (and (distinct cell_1_4 cell_2_4 cell_3_4 cell_4_4 cell_5_4 cell_6_4 cell_7_4 cell_8_4 cell_9_4) true))
(assert
 (and (distinct cell_1_5 cell_2_5 cell_3_5 cell_4_5 cell_5_5 cell_6_5 cell_7_5 cell_8_5 cell_9_5) true))
(assert
 (and (distinct cell_1_6 cell_2_6 cell_3_6 cell_4_6 cell_5_6 cell_6_6 cell_7_6 cell_8_6 cell_9_6) true))
(assert
 (and (distinct cell_1_7 cell_2_7 cell_3_7 cell_4_7 cell_5_7 cell_6_7 cell_7_7 cell_8_7 cell_9_7) true))
(assert
 (and (distinct cell_1_8 cell_2_8 cell_3_8 cell_4_8 cell_5_8 cell_6_8 cell_7_8 cell_8_8 cell_9_8) true))
(assert
 (and (distinct cell_1_9 cell_2_9 cell_3_9 cell_4_9 cell_5_9 cell_6_9 cell_7_9 cell_8_9 cell_9_9) true))
(assert
 (and (distinct cell_1_1 cell_1_2 cell_1_3 cell_2_1 cell_2_2 cell_2_3 cell_3_1 cell_3_2 cell_3_3) true))
(assert
 (and (distinct cell_1_4 cell_1_5 cell_1_6 cell_2_4 cell_2_5 cell_2_6 cell_3_4 cell_3_5 cell_3_6) true))
(assert
 (and (distinct cell_1_7 cell_1_8 cell_1_9 cell_2_7 cell_2_8 cell_2_9 cell_3_7 cell_3_8 cell_3_9) true))
(assert
 (and (distinct cell_4_1 cell_4_2 cell_4_3 cell_5_1 cell_5_2 cell_5_3 cell_6_1 cell_6_2 cell_6_3) true))
(assert
 (and (distinct cell_4_4 cell_4_5 cell_4_6 cell_5_4 cell_5_5 cell_5_6 cell_6_4 cell_6_5 cell_6_6) true))
(assert
 (and (distinct cell_4_7 cell_4_8 cell_4_9 cell_5_7 cell_5_8 cell_5_9 cell_6_7 cell_6_8 cell_6_9) true))
(assert
 (and (distinct cell_7_1 cell_7_2 cell_7_3 cell_8_1 cell_8_2 cell_8_3 cell_9_1 cell_9_2 cell_9_3) true))
(assert
 (and (distinct cell_7_4 cell_7_5 cell_7_6 cell_8_4 cell_8_5 cell_8_6 cell_9_4 cell_9_5 cell_9_6) true))
(assert
 (and (distinct cell_7_7 cell_7_8 cell_7_9 cell_8_7 cell_8_8 cell_8_9 cell_9_7 cell_9_8 cell_9_9) true))
(assert
 (let (($x3280 (and (distinct cell_5_9 cell_6_8 cell_7_7 cell_8_6) true)))
 (let (($x5616 (and (distinct cell_2_9 cell_3_8 cell_4_7 cell_5_6 cell_6_5 cell_7_4 cell_8_3 cell_9_2) true)))
 (let (($x9817 (and (distinct cell_1_8 cell_2_7 cell_3_6 cell_4_5 cell_5_4 cell_6_3 cell_7_2 cell_8_1) true)))
 (let (($x9441 (and (distinct cell_1_5 cell_2_4 cell_3_3 cell_4_2) true)))
 (let (($x1724 (and (distinct cell_5_1 cell_6_2 cell_7_3 cell_8_4) true)))
 (let (($x7395 (and (distinct cell_2_1 cell_3_2 cell_4_3 cell_5_4 cell_6_5 cell_7_6 cell_8_7 cell_9_8) true)))
 (let (($x3962 (and (distinct cell_1_2 cell_2_3 cell_3_4 cell_4_5 cell_5_6 cell_6_7 cell_7_8 cell_8_9) true)))
 (let (($x5631 (and (distinct cell_1_5 cell_2_6 cell_3_7 cell_4_8) true)))
 (and $x5631 $x3962 $x7395 $x1724 $x9441 $x9817 $x5616 $x3280))))))))))
(assert
 (= cell_9_8 2))
(check-sat)
